75
86 27
0 46
93 45
83 22
62 38
71 48
29 77
68 56
51 83
30 77
26 70
52 40
13 98
19 4
22 48
48 80
48 89
41 90
27 86
24 90
37 38
28 10
12 54
40 76
22 98
70 23
69 17
16 57
40 34
5 76
91 72
64 0
49 48
96 32
71 48
42 34
51 47
60 13
59 8
44 6
85 48
94 45
42 40
75 91
91 86
67 93
78 41
4 35
35 18
97 99
75 26
71 84
52 27
67 30
37 30
81 1
74 69
78 92
11 42
5 30
41 71
5 17
32 78
85 11
24 96
23 31
17 11
43 82
37 67
82 69
74 4
29 53
48 21
24 36
98 85